scenarios/sols/small/micp_milp/018.sol
objective value:                     2.03457383922308
x(0,4,0)                                            1 	(obj:0)
x(1,2,0)                                            1 	(obj:0)
x(2,9,0)                                            1 	(obj:0)
x(3,0,0)                                            1 	(obj:0)
x(4,1,0)                                            1 	(obj:0)
x(9,13,0)                                           1 	(obj:0)
x(13,3,0)                                           1 	(obj:0)
xc(0,13)                                            1 	(obj:0)
xc(2,1)                                             1 	(obj:0)
xc(3,4)                                             1 	(obj:0)
u(0,0)                             0.0897155402983199 	(obj:0)
u(1,0)                              0.688593060001265 	(obj:0)
u(2,0)                              0.877957147846965 	(obj:0)
u(4,0)                              0.308502368045591 	(obj:0)
u(5,0)                               2.03457383922308 	(obj:0)
u(6,0)                               2.03457383922308 	(obj:0)
u(7,0)                               2.03457383922308 	(obj:0)
u(9,0)                               1.66614222000767 	(obj:0)
u(13,0)                              2.03457383922308 	(obj:0)
u(14,0)                              2.03457383922308 	(obj:0)
u(16,0)                              2.03457383922308 	(obj:0)
f(0,4,0)                                            1 	(obj:0)
f(0,13,0)                                           1 	(obj:0)
f(0,13,3)                                           1 	(obj:0)
f(1,2,0)                                            1 	(obj:0)
f(1,2,1)                                            1 	(obj:0)
f(1,2,3)                                            1 	(obj:0)
f(1,2,4)                                            1 	(obj:0)
f(2,9,0)                                            1 	(obj:0)
f(2,9,1)                                            1 	(obj:0)
f(2,9,2)                                            1 	(obj:0)
f(2,9,3)                                            1 	(obj:0)
f(2,9,4)                                            1 	(obj:0)
f(3,0,0)                                            1 	(obj:0)
f(3,0,3)                                            1 	(obj:0)
f(3,4,3)                                            1 	(obj:0)
f(4,1,0)                                            1 	(obj:0)
f(4,1,3)                                            1 	(obj:0)
f(4,1,4)                                            1 	(obj:0)
f(13,3,0)                                           1 	(obj:0)
f(13,3,3)                                           1 	(obj:0)
z_r(0,)                              2.03457383922308 	(obj:0)
z                                    2.03457383922308 	(obj:1)
